[2026-03-23T16:00:16.089Z] Pipeline "set_exp_3_exp_3_n021_c004_g001" → 2026_03_23_16_00_15_set_exp_3_exp_3_n021_c004_g001_max.sol
Set parameter WLSAccessID
Set parameter WLSSecret
Set parameter LicenseID to value 2792458
Set parameter LogFile to value "gurobi.log"
Using license file /root/gurobi.lic
Academic license 2792458 - for non-commercial use only - registered to an___@studenti.unipg.it

Gurobi Optimizer version 13.0.1 build v13.0.1rc0 (linux64 - "Ubuntu 24.04.4 LTS")
Copyright (c) 2026, Gurobi Optimization, LLC

Warning: Duplicate section found (read 'binary') - Is a variable name equal to an LP file format keyword?
Warning: Duplicate section found (read 'binary') - Is a variable name equal to an LP file format keyword?
Warning: Duplicate section found (read 'binary') - Is a variable name equal to an LP file format keyword?
Warning: Duplicate section found (read 'binary') - Is a variable name equal to an LP file format keyword?
Warning: Duplicate section found (read 'binary') - Is a variable name equal to an LP file format keyword?
Warning: Duplicate section found (read 'binary') - Is a variable name equal to an LP file format keyword?
Warning: Duplicate section found (read 'binary') - Is a variable name equal to an LP file format keyword?
Warning: Duplicate section found (read 'binary') - Is a variable name equal to an LP file format keyword?
Warning: Duplicate section found (read 'binary') - Is a variable name equal to an LP file format keyword?
Warning: Duplicate section found (read 'binary') - Is a variable name equal to an LP file format keyword?
Warning: Further warnings of this type will be omitted.
Read LP format model from file /root/bgw/data/uploads/2026_03_23_16_00_15_set_exp_3_exp_3_n021_c004_g001_max.lp
Reading time = 0.00 seconds
: 3209 rows, 330 columns, 9485 nonzeros

Using Gurobi shared library /opt/gurobi1301/linux64/lib/libgurobi.so.13.0.1

CPU model: AMD EPYC-Genoa Processor, instruction set [SSE2|AVX|AVX2|AVX512]
Thread count: 16 physical cores, 16 logical processors, using up to 16 threads

Academic license 2792458 - for non-commercial use only - registered to an___@studenti.unipg.it
Optimize a model with 3209 rows, 330 columns and 9485 nonzeros (Max)
Model fingerprint: 0x87584fc3
Model has 4 linear objective coefficients
Variable types: 25 continuous, 305 integer (305 binary)
Coefficient statistics:
  Matrix range     [1e+00, 2e+01]
  Objective range  [1e+00, 1e+00]
  Bounds range     [1e+00, 1e+00]
  RHS range        [1e+00, 2e+01]

Found heuristic solution: objective 4.0000000
Presolve removed 521 rows and 102 columns
Presolve time: 0.01s
Presolved: 2688 rows, 228 columns, 8208 nonzeros
Variable types: 0 continuous, 228 integer (220 binary)
Found heuristic solution: objective 6.0000000

Root relaxation: objective 1.600000e+01, 97 iterations, 0.01 seconds (0.01 work units)

    Nodes    |    Current Node    |     Objective Bounds      |     Work
 Expl Unexpl |  Obj  Depth IntInf | Incumbent    BestBd   Gap | It/Node Time

     0     0   16.00000    0   18    6.00000   16.00000   167%     -    0s
H    0     0                      12.0000000   16.00000  33.3%     -    0s
     0     0   16.00000    0   13   12.00000   16.00000  33.3%     -    0s
     0     0   16.00000    0   18   12.00000   16.00000  33.3%     -    0s
     0     0   16.00000    0   18   12.00000   16.00000  33.3%     -    0s
     0     0   15.00000    0   15   12.00000   15.00000  25.0%     -    0s
     0     0   15.00000    0   15   12.00000   15.00000  25.0%     -    0s
     0     0   15.00000    0   18   12.00000   15.00000  25.0%     -    0s
     0     0   15.00000    0   17   12.00000   15.00000  25.0%     -    0s
     0     0   14.00000    0   18   12.00000   14.00000  16.7%     -    0s
     0     0   14.00000    0   17   12.00000   14.00000  16.7%     -    0s
     0     0   14.00000    0   16   12.00000   14.00000  16.7%     -    0s
     0     0   14.00000    0   18   12.00000   14.00000  16.7%     -    0s
     0     0   14.00000    0   18   12.00000   14.00000  16.7%     -    0s
     0     0   14.00000    0   18   12.00000   14.00000  16.7%     -    0s
     0     0   14.00000    0   18   12.00000   14.00000  16.7%     -    0s
     0     2   14.00000    0   18   12.00000   14.00000  16.7%     -    0s

Cutting planes:
  MIR: 4
  StrongCG: 2
  Inf proof: 1
  Zero half: 2

Explored 172 nodes (9403 simplex iterations) in 0.32 seconds (0.30 work units)
Thread count was 16 (of 16 available processors)

Solution count 3: 12 6 4 

Optimal solution found (tolerance 1.00e-04)
Best objective 1.200000000000e+01, best bound 1.200000000000e+01, gap 0.0000%

Wrote result file '/root/bgw/data/results/2026_03_23_16_00_15_set_exp_3_exp_3_n021_c004_g001_max.sol'

